50 8
685 201
164 365
98 547
158 256
219 462
672 645
464 116
755 723
691 659
781 633
796 403
332 105
808 691
590 377
564 58
458 219
777 266
295 128
671 504
554 756
419 449
424 118
70 462
561 878
236 249
778 368
889 247
197 373
420 457
560 764
265 745
80 414
748 695
321 837
337 109
739 573
756 756
294 190
239 315
81 436
196 225
603 785
314 144
396 718
521 453
733 661
718 438
409 187
810 330
753 151
